300
[63,64,65,67,69,70,71,72,76,77,78,79,81,82,83,84,85,86,87,88,89,90,91,92,93,94,95,97,100,101,103,104,106,107,109,110,111,112,114,116,119,120,121,123,124,125,126,127,128,129,133,137,139,140,141,142,143,145,146,147,148,150,154,155,156,157,158,159,160,161,164,165,171,173,175,177,179,180,182,183,184,185,187,188,189,190,191,192,193,194,195,198,199,202,203,204,205,206,207,213,214,216,217,218,220,221,222,223,224,225,226,227,229,231,232,233,234,236,237,239]
[1,1,1,1,6,1,1,2,1,1,3,3,2,2,2,1,3,1,2,1,1,1,3,1,2,1,1,2,1,1,1,1,1,2,4,1,1,1,4,1,4,1,1,1,2,1,1,2,1,2,3,1,1,2,1,1,3,3,2,1,1,2,1,1,4,5,2,2,1,1,4,1,1,1,1,1,2,1,1,2,2,1,1,1,1,1,2,1,1,1,1,4,3,1,1,3,1,1,2,1,3,3,1,1,2,2,1,1,1,1,4,1,1,1,4,2,1,1,1,2]
